data/lp_files/pEFS/58_3.lp
\ Model foo
\ LP format - for model browsing. Use MPS format to capture full model detail.
Minimize
  z
Subject To
 allocateEach[1]: x[1,1] + x[2,1] + x[3,1] = 1
 allocateEach[2]: x[1,2] + x[2,2] + x[3,2] = 1
 allocateEach[3]: x[1,3] + x[2,3] + x[3,3] = 1
 allocateEach[4]: x[1,4] + x[2,4] + x[3,4] = 1
 allocateEach[5]: x[1,5] + x[2,5] + x[3,5] = 1
 allocateEach[6]: x[1,6] + x[2,6] + x[3,6] = 1
 allocateEach[7]: x[1,7] + x[2,7] + x[3,7] = 1
 allocateEach[8]: x[1,8] + x[2,8] + x[3,8] = 1
 allocateEach[9]: x[1,9] + x[2,9] + x[3,9] = 1
 allocateEach[10]: x[1,10] + x[2,10] + x[3,10] = 1
 allocateEach[11]: x[1,11] + x[2,11] + x[3,11] = 1
 allocateEach[12]: x[1,12] + x[2,12] + x[3,12] = 1
 allocateEach[13]: x[1,13] + x[2,13] + x[3,13] = 1
 allocateEach[14]: x[1,14] + x[2,14] + x[3,14] = 1
 allocateEach[15]: x[1,15] + x[2,15] + x[3,15] = 1
 allocateEach[16]: x[1,16] + x[2,16] + x[3,16] = 1
 allocateEach[17]: x[1,17] + x[2,17] + x[3,17] = 1
 allocateEach[18]: x[1,18] + x[2,18] + x[3,18] = 1
 allocateAllCash: cashProportion[1] + cashProportion[2] + cashProportion[3]
   = 1
 findWorstP[1,2]: z + 0.021948596387261 cashProportion[1]
   - 0.021948596387261 cashProportion[2] + 0.0891222756304734 x[1,1]
   + 0.0616975044445908 x[1,2] + 0.0745923048221066 x[1,3]
   + 0.0569127104321679 x[1,4] + 0.0271943109238164 x[1,5]
   + 0.10930401000856 x[1,6] + 0.0304097802945502 x[1,7]
   + 0.1041790127521345 x[1,8] + 0.0503720287087641 x[1,9]
   + 0.036741950352275 x[1,10] + 0.050492745988894 x[1,11]
   + 0.01194003643467 x[1,12] + 0.0141897675643643 x[1,13]
   + 0.0564188670134545 x[1,14] + 0.0599306424354163 x[1,15]
   + 0.00826364653980378 x[1,16] + 0.0703891486139461 x[1,17]
   + 0.0659006606527513 x[1,18] - 0.0891222756304734 x[2,1]
   - 0.0616975044445908 x[2,2] - 0.0745923048221066 x[2,3]
   - 0.0569127104321679 x[2,4] - 0.0271943109238164 x[2,5]
   - 0.10930401000856 x[2,6] - 0.0304097802945502 x[2,7]
   - 0.1041790127521345 x[2,8] - 0.0503720287087641 x[2,9]
   - 0.036741950352275 x[2,10] - 0.050492745988894 x[2,11]
   - 0.01194003643467 x[2,12] - 0.0141897675643643 x[2,13]
   - 0.0564188670134545 x[2,14] - 0.0599306424354163 x[2,15]
   - 0.00826364653980378 x[2,16] - 0.0703891486139461 x[2,17]
   - 0.0659006606527513 x[2,18] >= 0
 findWorstP[1,3]: z + 0.021948596387261 cashProportion[1]
   - 0.021948596387261 cashProportion[3] + 0.0891222756304734 x[1,1]
   + 0.0616975044445908 x[1,2] + 0.0745923048221066 x[1,3]
   + 0.0569127104321679 x[1,4] + 0.0271943109238164 x[1,5]
   + 0.10930401000856 x[1,6] + 0.0304097802945502 x[1,7]
   + 0.1041790127521345 x[1,8] + 0.0503720287087641 x[1,9]
   + 0.036741950352275 x[1,10] + 0.050492745988894 x[1,11]
   + 0.01194003643467 x[1,12] + 0.0141897675643643 x[1,13]
   + 0.0564188670134545 x[1,14] + 0.0599306424354163 x[1,15]
   + 0.00826364653980378 x[1,16] + 0.0703891486139461 x[1,17]
   + 0.0659006606527513 x[1,18] - 0.0891222756304734 x[3,1]
   - 0.0616975044445908 x[3,2] - 0.0745923048221066 x[3,3]
   - 0.0569127104321679 x[3,4] - 0.0271943109238164 x[3,5]
   - 0.10930401000856 x[3,6] - 0.0304097802945502 x[3,7]
   - 0.1041790127521345 x[3,8] - 0.0503720287087641 x[3,9]
   - 0.036741950352275 x[3,10] - 0.050492745988894 x[3,11]
   - 0.01194003643467 x[3,12] - 0.0141897675643643 x[3,13]
   - 0.0564188670134545 x[3,14] - 0.0599306424354163 x[3,15]
   - 0.00826364653980378 x[3,16] - 0.0703891486139461 x[3,17]
   - 0.0659006606527513 x[3,18] >= 0
 findWorstP[2,1]: z - 0.0234857558890533 cashProportion[1]
   + 0.0234857558890533 cashProportion[2] - 0.0339486601376265 x[1,1]
   - 0.113248314897015 x[1,2] - 0.0935202799502102 x[1,3]
   - 0.00581272458254069 x[1,4] - 0.0455623664247634 x[1,5]
   - 0.00926513069823152 x[1,6] - 0.0421804175767397 x[1,7]
   - 0.0258460743559031 x[1,8] - 0.0884003851663966 x[1,9]
   - 0.038551868291881 x[1,10] - 0.009476502501233 x[1,11]
   - 0.076234763615867 x[1,12] - 0.0701167242067686 x[1,13]
   - 0.00507292327203551 x[1,14] - 0.069635266211043 x[1,15]
   - 0.039643955940722 x[1,16] - 0.1106648817492191 x[1,17]
   - 0.0993330045327509 x[1,18] + 0.0339486601376265 x[2,1]
   + 0.113248314897015 x[2,2] + 0.0935202799502102 x[2,3]
   + 0.00581272458254069 x[2,4] + 0.0455623664247634 x[2,5]
   + 0.00926513069823152 x[2,6] + 0.0421804175767397 x[2,7]
   + 0.0258460743559031 x[2,8] + 0.0884003851663966 x[2,9]
   + 0.038551868291881 x[2,10] + 0.009476502501233 x[2,11]
   + 0.076234763615867 x[2,12] + 0.0701167242067686 x[2,13]
   + 0.00507292327203551 x[2,14] + 0.069635266211043 x[2,15]
   + 0.039643955940722 x[2,16] + 0.1106648817492191 x[2,17]
   + 0.0993330045327509 x[2,18] >= 0
 findWorstP[2,3]: z + 0.0234857558890533 cashProportion[2]
   - 0.0234857558890533 cashProportion[3] + 0.0339486601376265 x[2,1]
   + 0.113248314897015 x[2,2] + 0.0935202799502102 x[2,3]
   + 0.00581272458254069 x[2,4] + 0.0455623664247634 x[2,5]
   + 0.00926513069823152 x[2,6] + 0.0421804175767397 x[2,7]
   + 0.0258460743559031 x[2,8] + 0.0884003851663966 x[2,9]
   + 0.038551868291881 x[2,10] + 0.009476502501233 x[2,11]
   + 0.076234763615867 x[2,12] + 0.0701167242067686 x[2,13]
   + 0.00507292327203551 x[2,14] + 0.069635266211043 x[2,15]
   + 0.039643955940722 x[2,16] + 0.1106648817492191 x[2,17]
   + 0.0993330045327509 x[2,18] - 0.0339486601376265 x[3,1]
   - 0.113248314897015 x[3,2] - 0.0935202799502102 x[3,3]
   - 0.00581272458254069 x[3,4] - 0.0455623664247634 x[3,5]
   - 0.00926513069823152 x[3,6] - 0.0421804175767397 x[3,7]
   - 0.0258460743559031 x[3,8] - 0.0884003851663966 x[3,9]
   - 0.038551868291881 x[3,10] - 0.009476502501233 x[3,11]
   - 0.076234763615867 x[3,12] - 0.0701167242067686 x[3,13]
   - 0.00507292327203551 x[3,14] - 0.069635266211043 x[3,15]
   - 0.039643955940722 x[3,16] - 0.1106648817492191 x[3,17]
   - 0.0993330045327509 x[3,18] >= 0
 findWorstP[3,1]: z - 0.0229257892202939 cashProportion[1]
   + 0.0229257892202939 cashProportion[3] - 0.0411517916504276 x[1,1]
   - 0.0367615030147413 x[1,2] - 0.0833008551319379 x[1,3]
   - 0.0734886173456521 x[1,4] - 0.11388385795181 x[1,5]
   - 0.0827162475068204 x[1,6] - 0.0752424402210046 x[1,7]
   - 0.0177216350672872 x[1,8] - 0.0104656227790642 x[1,9]
   - 0.073247896558839 x[1,10] - 0.1067768632935189 x[1,11]
   - 0.0164377908709507 x[1,12] - 0.0894564295375868 x[1,13]
   - 0.0133771980100415 x[1,14] - 0.0606731011715078 x[1,15]
   - 0.0230518810610055 x[1,16] - 0.00912446410967698 x[1,17]
   - 0.0501960154978335 x[1,18] + 0.0411517916504276 x[3,1]
   + 0.0367615030147413 x[3,2] + 0.0833008551319379 x[3,3]
   + 0.0734886173456521 x[3,4] + 0.11388385795181 x[3,5]
   + 0.0827162475068204 x[3,6] + 0.0752424402210046 x[3,7]
   + 0.0177216350672872 x[3,8] + 0.0104656227790642 x[3,9]
   + 0.073247896558839 x[3,10] + 0.1067768632935189 x[3,11]
   + 0.0164377908709507 x[3,12] + 0.0894564295375868 x[3,13]
   + 0.0133771980100415 x[3,14] + 0.0606731011715078 x[3,15]
   + 0.0230518810610055 x[3,16] + 0.00912446410967698 x[3,17]
   + 0.0501960154978335 x[3,18] >= 0
 findWorstP[3,2]: z - 0.0229257892202939 cashProportion[2]
   + 0.0229257892202939 cashProportion[3] - 0.0411517916504276 x[2,1]
   - 0.0367615030147413 x[2,2] - 0.0833008551319379 x[2,3]
   - 0.0734886173456521 x[2,4] - 0.11388385795181 x[2,5]
   - 0.0827162475068204 x[2,6] - 0.0752424402210046 x[2,7]
   - 0.0177216350672872 x[2,8] - 0.0104656227790642 x[2,9]
   - 0.073247896558839 x[2,10] - 0.1067768632935189 x[2,11]
   - 0.0164377908709507 x[2,12] - 0.0894564295375868 x[2,13]
   - 0.0133771980100415 x[2,14] - 0.0606731011715078 x[2,15]
   - 0.0230518810610055 x[2,16] - 0.00912446410967698 x[2,17]
   - 0.0501960154978335 x[2,18] + 0.0411517916504276 x[3,1]
   + 0.0367615030147413 x[3,2] + 0.0833008551319379 x[3,3]
   + 0.0734886173456521 x[3,4] + 0.11388385795181 x[3,5]
   + 0.0827162475068204 x[3,6] + 0.0752424402210046 x[3,7]
   + 0.0177216350672872 x[3,8] + 0.0104656227790642 x[3,9]
   + 0.073247896558839 x[3,10] + 0.1067768632935189 x[3,11]
   + 0.0164377908709507 x[3,12] + 0.0894564295375868 x[3,13]
   + 0.0133771980100415 x[3,14] + 0.0606731011715078 x[3,15]
   + 0.0230518810610055 x[3,16] + 0.00912446410967698 x[3,17]
   + 0.0501960154978335 x[3,18] >= 0
Bounds
 z <= 1
 -infinity <= cashProportion[1] <= 1
 -infinity <= cashProportion[2] <= 1
 -infinity <= cashProportion[3] <= 1
Binaries
 x[1,1] x[1,2] x[1,3] x[1,4] x[1,5] x[1,6] x[1,7] x[1,8] x[1,9] x[1,10]
 x[1,11] x[1,12] x[1,13] x[1,14] x[1,15] x[1,16] x[1,17] x[1,18] x[2,1]
 x[2,2] x[2,3] x[2,4] x[2,5] x[2,6] x[2,7] x[2,8] x[2,9] x[2,10] x[2,11]
 x[2,12] x[2,13] x[2,14] x[2,15] x[2,16] x[2,17] x[2,18] x[3,1] x[3,2]
 x[3,3] x[3,4] x[3,5] x[3,6] x[3,7] x[3,8] x[3,9] x[3,10] x[3,11] x[3,12]
 x[3,13] x[3,14] x[3,15] x[3,16] x[3,17] x[3,18]
End
