data/mps_files/q3/58_3.mps
NAME foo
ROWS
 N  OBJ
 E  allocateEach[1]
 E  allocateEach[2]
 E  allocateEach[3]
 E  allocateEach[4]
 E  allocateEach[5]
 E  allocateEach[6]
 E  allocateEach[7]
 E  allocateEach[8]
 E  allocateEach[9]
 E  allocateEach[10]
 E  allocateEach[11]
 E  allocateEach[12]
 E  allocateEach[13]
 E  allocateEach[14]
 E  allocateEach[15]
 E  allocateEach[16]
 E  allocateEach[17]
 E  allocateEach[18]
 E  allocateAllCash
 G  findWorstP[1,2]
 G  findWorstP[1,3]
 G  findWorstP[2,1]
 G  findWorstP[2,3]
 G  findWorstP[3,1]
 G  findWorstP[3,2]
COLUMNS
    z         OBJ       1
    z         findWorstP[1,2]  1
    z         findWorstP[1,3]  1
    z         findWorstP[2,1]  1
    z         findWorstP[2,3]  1
    z         findWorstP[3,1]  1
    z         findWorstP[3,2]  1
    cashProportion[1]  allocateAllCash  1
    cashProportion[1]  findWorstP[1,2]  2.1948596387261037e-02
    cashProportion[1]  findWorstP[1,3]  2.1948596387261037e-02
    cashProportion[1]  findWorstP[2,1]  -2.3485755889053293e-02
    cashProportion[1]  findWorstP[3,1]  -2.2925789220293910e-02
    cashProportion[2]  allocateAllCash  1
    cashProportion[2]  findWorstP[1,2]  -2.1948596387261037e-02
    cashProportion[2]  findWorstP[2,1]  2.3485755889053293e-02
    cashProportion[2]  findWorstP[2,3]  2.3485755889053293e-02
    cashProportion[2]  findWorstP[3,2]  -2.2925789220293910e-02
    cashProportion[3]  allocateAllCash  1
    cashProportion[3]  findWorstP[1,3]  -2.1948596387261037e-02
    cashProportion[3]  findWorstP[2,3]  -2.3485755889053293e-02
    cashProportion[3]  findWorstP[3,1]  2.2925789220293910e-02
    cashProportion[3]  findWorstP[3,2]  2.2925789220293910e-02
    MARKER    'MARKER'                 'INTORG'
    x[1,1]    allocateEach[1]  1
    x[1,1]    findWorstP[1,2]  8.9122275630473438e-02
    x[1,1]    findWorstP[1,3]  8.9122275630473438e-02
    x[1,1]    findWorstP[2,1]  -3.3948660137626534e-02
    x[1,1]    findWorstP[3,1]  -4.1151791650427559e-02
    x[1,2]    allocateEach[2]  1
    x[1,2]    findWorstP[1,2]  6.1697504444590774e-02
    x[1,2]    findWorstP[1,3]  6.1697504444590774e-02
    x[1,2]    findWorstP[2,1]  -1.1324831489701498e-01
    x[1,2]    findWorstP[3,1]  -3.6761503014741279e-02
    x[1,3]    allocateEach[3]  1
    x[1,3]    findWorstP[1,2]  7.4592304822106631e-02
    x[1,3]    findWorstP[1,3]  7.4592304822106631e-02
    x[1,3]    findWorstP[2,1]  -9.3520279950210214e-02
    x[1,3]    findWorstP[3,1]  -8.3300855131937912e-02
    x[1,4]    allocateEach[4]  1
    x[1,4]    findWorstP[1,2]  5.6912710432167855e-02
    x[1,4]    findWorstP[1,3]  5.6912710432167855e-02
    x[1,4]    findWorstP[2,1]  -0.00581272458254069
    x[1,4]    findWorstP[3,1]  -7.3488617345652124e-02
    x[1,5]    allocateEach[5]  1
    x[1,5]    findWorstP[1,2]  2.7194310923816422e-02
    x[1,5]    findWorstP[1,3]  2.7194310923816422e-02
    x[1,5]    findWorstP[2,1]  -4.5562366424763391e-02
    x[1,5]    findWorstP[3,1]  -0.11388385795181
    x[1,6]    allocateEach[6]  1
    x[1,6]    findWorstP[1,2]  1.0930401000855995e-01
    x[1,6]    findWorstP[1,3]  1.0930401000855995e-01
    x[1,6]    findWorstP[2,1]  -9.2651306982315228e-03
    x[1,6]    findWorstP[3,1]  -8.2716247506820426e-02
    x[1,7]    allocateEach[7]  1
    x[1,7]    findWorstP[1,2]  3.0409780294550166e-02
    x[1,7]    findWorstP[1,3]  3.0409780294550166e-02
    x[1,7]    findWorstP[2,1]  -4.2180417576739716e-02
    x[1,7]    findWorstP[3,1]  -0.0752424402210046
    x[1,8]    allocateEach[8]  1
    x[1,8]    findWorstP[1,2]  1.0417901275213451e-01
    x[1,8]    findWorstP[1,3]  1.0417901275213451e-01
    x[1,8]    findWorstP[2,1]  -2.5846074355903147e-02
    x[1,8]    findWorstP[3,1]  -1.7721635067287189e-02
    x[1,9]    allocateEach[9]  1
    x[1,9]    findWorstP[1,2]  5.0372028708764074e-02
    x[1,9]    findWorstP[1,3]  5.0372028708764074e-02
    x[1,9]    findWorstP[2,1]  -8.8400385166396589e-02
    x[1,9]    findWorstP[3,1]  -1.0465622779064170e-02
    x[1,10]   allocateEach[10]  1
    x[1,10]   findWorstP[1,2]  3.6741950352274969e-02
    x[1,10]   findWorstP[1,3]  3.6741950352274969e-02
    x[1,10]   findWorstP[2,1]  -3.8551868291880974e-02
    x[1,10]   findWorstP[3,1]  -7.3247896558839037e-02
    x[1,11]   allocateEach[11]  1
    x[1,11]   findWorstP[1,2]  5.0492745988894014e-02
    x[1,11]   findWorstP[1,3]  5.0492745988894014e-02
    x[1,11]   findWorstP[2,1]  -9.4765025012330025e-03
    x[1,11]   findWorstP[3,1]  -1.0677686329351888e-01
    x[1,12]   allocateEach[12]  1
    x[1,12]   findWorstP[1,2]  1.1940036434670002e-02
    x[1,12]   findWorstP[1,3]  1.1940036434670002e-02
    x[1,12]   findWorstP[2,1]  -7.6234763615866979e-02
    x[1,12]   findWorstP[3,1]  -1.6437790870950732e-02
    x[1,13]   allocateEach[13]  1
    x[1,13]   findWorstP[1,2]  1.4189767564364259e-02
    x[1,13]   findWorstP[1,3]  1.4189767564364259e-02
    x[1,13]   findWorstP[2,1]  -0.0701167242067686
    x[1,13]   findWorstP[3,1]  -8.9456429537586826e-02
    x[1,14]   allocateEach[14]  1
    x[1,14]   findWorstP[1,2]  5.6418867013454492e-02
    x[1,14]   findWorstP[1,3]  5.6418867013454492e-02
    x[1,14]   findWorstP[2,1]  -5.0729232720355113e-03
    x[1,14]   findWorstP[3,1]  -1.3377198010041495e-02
    x[1,15]   allocateEach[15]  1
    x[1,15]   findWorstP[1,2]  5.9930642435416258e-02
    x[1,15]   findWorstP[1,3]  5.9930642435416258e-02
    x[1,15]   findWorstP[2,1]  -0.069635266211043
    x[1,15]   findWorstP[3,1]  -6.0673101171507822e-02
    x[1,16]   allocateEach[16]  1
    x[1,16]   findWorstP[1,2]  8.2636465398037810e-03
    x[1,16]   findWorstP[1,3]  8.2636465398037810e-03
    x[1,16]   findWorstP[2,1]  -3.9643955940721960e-02
    x[1,16]   findWorstP[3,1]  -2.3051881061005523e-02
    x[1,17]   allocateEach[17]  1
    x[1,17]   findWorstP[1,2]  7.0389148613946143e-02
    x[1,17]   findWorstP[1,3]  7.0389148613946143e-02
    x[1,17]   findWorstP[2,1]  -1.1066488174921911e-01
    x[1,17]   findWorstP[3,1]  -9.1244641096769764e-03
    x[1,18]   allocateEach[18]  1
    x[1,18]   findWorstP[1,2]  6.5900660652751256e-02
    x[1,18]   findWorstP[1,3]  6.5900660652751256e-02
    x[1,18]   findWorstP[2,1]  -0.0993330045327509
    x[1,18]   findWorstP[3,1]  -5.0196015497833514e-02
    x[2,1]    allocateEach[1]  1
    x[2,1]    findWorstP[1,2]  -8.9122275630473438e-02
    x[2,1]    findWorstP[2,1]  3.3948660137626534e-02
    x[2,1]    findWorstP[2,3]  3.3948660137626534e-02
    x[2,1]    findWorstP[3,2]  -4.1151791650427559e-02
    x[2,2]    allocateEach[2]  1
    x[2,2]    findWorstP[1,2]  -6.1697504444590774e-02
    x[2,2]    findWorstP[2,1]  1.1324831489701498e-01
    x[2,2]    findWorstP[2,3]  1.1324831489701498e-01
    x[2,2]    findWorstP[3,2]  -3.6761503014741279e-02
    x[2,3]    allocateEach[3]  1
    x[2,3]    findWorstP[1,2]  -7.4592304822106631e-02
    x[2,3]    findWorstP[2,1]  9.3520279950210214e-02
    x[2,3]    findWorstP[2,3]  9.3520279950210214e-02
    x[2,3]    findWorstP[3,2]  -8.3300855131937912e-02
    x[2,4]    allocateEach[4]  1
    x[2,4]    findWorstP[1,2]  -5.6912710432167855e-02
    x[2,4]    findWorstP[2,1]  0.00581272458254069
    x[2,4]    findWorstP[2,3]  0.00581272458254069
    x[2,4]    findWorstP[3,2]  -7.3488617345652124e-02
    x[2,5]    allocateEach[5]  1
    x[2,5]    findWorstP[1,2]  -2.7194310923816422e-02
    x[2,5]    findWorstP[2,1]  4.5562366424763391e-02
    x[2,5]    findWorstP[2,3]  4.5562366424763391e-02
    x[2,5]    findWorstP[3,2]  -0.11388385795181
    x[2,6]    allocateEach[6]  1
    x[2,6]    findWorstP[1,2]  -1.0930401000855995e-01
    x[2,6]    findWorstP[2,1]  9.2651306982315228e-03
    x[2,6]    findWorstP[2,3]  9.2651306982315228e-03
    x[2,6]    findWorstP[3,2]  -8.2716247506820426e-02
    x[2,7]    allocateEach[7]  1
    x[2,7]    findWorstP[1,2]  -3.0409780294550166e-02
    x[2,7]    findWorstP[2,1]  4.2180417576739716e-02
    x[2,7]    findWorstP[2,3]  4.2180417576739716e-02
    x[2,7]    findWorstP[3,2]  -0.0752424402210046
    x[2,8]    allocateEach[8]  1
    x[2,8]    findWorstP[1,2]  -1.0417901275213451e-01
    x[2,8]    findWorstP[2,1]  2.5846074355903147e-02
    x[2,8]    findWorstP[2,3]  2.5846074355903147e-02
    x[2,8]    findWorstP[3,2]  -1.7721635067287189e-02
    x[2,9]    allocateEach[9]  1
    x[2,9]    findWorstP[1,2]  -5.0372028708764074e-02
    x[2,9]    findWorstP[2,1]  8.8400385166396589e-02
    x[2,9]    findWorstP[2,3]  8.8400385166396589e-02
    x[2,9]    findWorstP[3,2]  -1.0465622779064170e-02
    x[2,10]   allocateEach[10]  1
    x[2,10]   findWorstP[1,2]  -3.6741950352274969e-02
    x[2,10]   findWorstP[2,1]  3.8551868291880974e-02
    x[2,10]   findWorstP[2,3]  3.8551868291880974e-02
    x[2,10]   findWorstP[3,2]  -7.3247896558839037e-02
    x[2,11]   allocateEach[11]  1
    x[2,11]   findWorstP[1,2]  -5.0492745988894014e-02
    x[2,11]   findWorstP[2,1]  9.4765025012330025e-03
    x[2,11]   findWorstP[2,3]  9.4765025012330025e-03
    x[2,11]   findWorstP[3,2]  -1.0677686329351888e-01
    x[2,12]   allocateEach[12]  1
    x[2,12]   findWorstP[1,2]  -1.1940036434670002e-02
    x[2,12]   findWorstP[2,1]  7.6234763615866979e-02
    x[2,12]   findWorstP[2,3]  7.6234763615866979e-02
    x[2,12]   findWorstP[3,2]  -1.6437790870950732e-02
    x[2,13]   allocateEach[13]  1
    x[2,13]   findWorstP[1,2]  -1.4189767564364259e-02
    x[2,13]   findWorstP[2,1]  0.0701167242067686
    x[2,13]   findWorstP[2,3]  0.0701167242067686
    x[2,13]   findWorstP[3,2]  -8.9456429537586826e-02
    x[2,14]   allocateEach[14]  1
    x[2,14]   findWorstP[1,2]  -5.6418867013454492e-02
    x[2,14]   findWorstP[2,1]  5.0729232720355113e-03
    x[2,14]   findWorstP[2,3]  5.0729232720355113e-03
    x[2,14]   findWorstP[3,2]  -1.3377198010041495e-02
    x[2,15]   allocateEach[15]  1
    x[2,15]   findWorstP[1,2]  -5.9930642435416258e-02
    x[2,15]   findWorstP[2,1]  0.069635266211043
    x[2,15]   findWorstP[2,3]  0.069635266211043
    x[2,15]   findWorstP[3,2]  -6.0673101171507822e-02
    x[2,16]   allocateEach[16]  1
    x[2,16]   findWorstP[1,2]  -8.2636465398037810e-03
    x[2,16]   findWorstP[2,1]  3.9643955940721960e-02
    x[2,16]   findWorstP[2,3]  3.9643955940721960e-02
    x[2,16]   findWorstP[3,2]  -2.3051881061005523e-02
    x[2,17]   allocateEach[17]  1
    x[2,17]   findWorstP[1,2]  -7.0389148613946143e-02
    x[2,17]   findWorstP[2,1]  1.1066488174921911e-01
    x[2,17]   findWorstP[2,3]  1.1066488174921911e-01
    x[2,17]   findWorstP[3,2]  -9.1244641096769764e-03
    x[2,18]   allocateEach[18]  1
    x[2,18]   findWorstP[1,2]  -6.5900660652751256e-02
    x[2,18]   findWorstP[2,1]  0.0993330045327509
    x[2,18]   findWorstP[2,3]  0.0993330045327509
    x[2,18]   findWorstP[3,2]  -5.0196015497833514e-02
    x[3,1]    allocateEach[1]  1
    x[3,1]    findWorstP[1,3]  -8.9122275630473438e-02
    x[3,1]    findWorstP[2,3]  -3.3948660137626534e-02
    x[3,1]    findWorstP[3,1]  4.1151791650427559e-02
    x[3,1]    findWorstP[3,2]  4.1151791650427559e-02
    x[3,2]    allocateEach[2]  1
    x[3,2]    findWorstP[1,3]  -6.1697504444590774e-02
    x[3,2]    findWorstP[2,3]  -1.1324831489701498e-01
    x[3,2]    findWorstP[3,1]  3.6761503014741279e-02
    x[3,2]    findWorstP[3,2]  3.6761503014741279e-02
    x[3,3]    allocateEach[3]  1
    x[3,3]    findWorstP[1,3]  -7.4592304822106631e-02
    x[3,3]    findWorstP[2,3]  -9.3520279950210214e-02
    x[3,3]    findWorstP[3,1]  8.3300855131937912e-02
    x[3,3]    findWorstP[3,2]  8.3300855131937912e-02
    x[3,4]    allocateEach[4]  1
    x[3,4]    findWorstP[1,3]  -5.6912710432167855e-02
    x[3,4]    findWorstP[2,3]  -0.00581272458254069
    x[3,4]    findWorstP[3,1]  7.3488617345652124e-02
    x[3,4]    findWorstP[3,2]  7.3488617345652124e-02
    x[3,5]    allocateEach[5]  1
    x[3,5]    findWorstP[1,3]  -2.7194310923816422e-02
    x[3,5]    findWorstP[2,3]  -4.5562366424763391e-02
    x[3,5]    findWorstP[3,1]  0.11388385795181
    x[3,5]    findWorstP[3,2]  0.11388385795181
    x[3,6]    allocateEach[6]  1
    x[3,6]    findWorstP[1,3]  -1.0930401000855995e-01
    x[3,6]    findWorstP[2,3]  -9.2651306982315228e-03
    x[3,6]    findWorstP[3,1]  8.2716247506820426e-02
    x[3,6]    findWorstP[3,2]  8.2716247506820426e-02
    x[3,7]    allocateEach[7]  1
    x[3,7]    findWorstP[1,3]  -3.0409780294550166e-02
    x[3,7]    findWorstP[2,3]  -4.2180417576739716e-02
    x[3,7]    findWorstP[3,1]  0.0752424402210046
    x[3,7]    findWorstP[3,2]  0.0752424402210046
    x[3,8]    allocateEach[8]  1
    x[3,8]    findWorstP[1,3]  -1.0417901275213451e-01
    x[3,8]    findWorstP[2,3]  -2.5846074355903147e-02
    x[3,8]    findWorstP[3,1]  1.7721635067287189e-02
    x[3,8]    findWorstP[3,2]  1.7721635067287189e-02
    x[3,9]    allocateEach[9]  1
    x[3,9]    findWorstP[1,3]  -5.0372028708764074e-02
    x[3,9]    findWorstP[2,3]  -8.8400385166396589e-02
    x[3,9]    findWorstP[3,1]  1.0465622779064170e-02
    x[3,9]    findWorstP[3,2]  1.0465622779064170e-02
    x[3,10]   allocateEach[10]  1
    x[3,10]   findWorstP[1,3]  -3.6741950352274969e-02
    x[3,10]   findWorstP[2,3]  -3.8551868291880974e-02
    x[3,10]   findWorstP[3,1]  7.3247896558839037e-02
    x[3,10]   findWorstP[3,2]  7.3247896558839037e-02
    x[3,11]   allocateEach[11]  1
    x[3,11]   findWorstP[1,3]  -5.0492745988894014e-02
    x[3,11]   findWorstP[2,3]  -9.4765025012330025e-03
    x[3,11]   findWorstP[3,1]  1.0677686329351888e-01
    x[3,11]   findWorstP[3,2]  1.0677686329351888e-01
    x[3,12]   allocateEach[12]  1
    x[3,12]   findWorstP[1,3]  -1.1940036434670002e-02
    x[3,12]   findWorstP[2,3]  -7.6234763615866979e-02
    x[3,12]   findWorstP[3,1]  1.6437790870950732e-02
    x[3,12]   findWorstP[3,2]  1.6437790870950732e-02
    x[3,13]   allocateEach[13]  1
    x[3,13]   findWorstP[1,3]  -1.4189767564364259e-02
    x[3,13]   findWorstP[2,3]  -0.0701167242067686
    x[3,13]   findWorstP[3,1]  8.9456429537586826e-02
    x[3,13]   findWorstP[3,2]  8.9456429537586826e-02
    x[3,14]   allocateEach[14]  1
    x[3,14]   findWorstP[1,3]  -5.6418867013454492e-02
    x[3,14]   findWorstP[2,3]  -5.0729232720355113e-03
    x[3,14]   findWorstP[3,1]  1.3377198010041495e-02
    x[3,14]   findWorstP[3,2]  1.3377198010041495e-02
    x[3,15]   allocateEach[15]  1
    x[3,15]   findWorstP[1,3]  -5.9930642435416258e-02
    x[3,15]   findWorstP[2,3]  -0.069635266211043
    x[3,15]   findWorstP[3,1]  6.0673101171507822e-02
    x[3,15]   findWorstP[3,2]  6.0673101171507822e-02
    x[3,16]   allocateEach[16]  1
    x[3,16]   findWorstP[1,3]  -8.2636465398037810e-03
    x[3,16]   findWorstP[2,3]  -3.9643955940721960e-02
    x[3,16]   findWorstP[3,1]  2.3051881061005523e-02
    x[3,16]   findWorstP[3,2]  2.3051881061005523e-02
    x[3,17]   allocateEach[17]  1
    x[3,17]   findWorstP[1,3]  -7.0389148613946143e-02
    x[3,17]   findWorstP[2,3]  -1.1066488174921911e-01
    x[3,17]   findWorstP[3,1]  9.1244641096769764e-03
    x[3,17]   findWorstP[3,2]  9.1244641096769764e-03
    x[3,18]   allocateEach[18]  1
    x[3,18]   findWorstP[1,3]  -6.5900660652751256e-02
    x[3,18]   findWorstP[2,3]  -0.0993330045327509
    x[3,18]   findWorstP[3,1]  5.0196015497833514e-02
    x[3,18]   findWorstP[3,2]  5.0196015497833514e-02
    MARKER    'MARKER'                 'INTEND'
RHS
    RHS1      allocateEach[1]  1
    RHS1      allocateEach[2]  1
    RHS1      allocateEach[3]  1
    RHS1      allocateEach[4]  1
    RHS1      allocateEach[5]  1
    RHS1      allocateEach[6]  1
    RHS1      allocateEach[7]  1
    RHS1      allocateEach[8]  1
    RHS1      allocateEach[9]  1
    RHS1      allocateEach[10]  1
    RHS1      allocateEach[11]  1
    RHS1      allocateEach[12]  1
    RHS1      allocateEach[13]  1
    RHS1      allocateEach[14]  1
    RHS1      allocateEach[15]  1
    RHS1      allocateEach[16]  1
    RHS1      allocateEach[17]  1
    RHS1      allocateEach[18]  1
    RHS1      allocateAllCash  1
BOUNDS
 UP BND1      z         1
 MI BND1      cashProportion[1]
 UP BND1      cashProportion[1]  1
 MI BND1      cashProportion[2]
 UP BND1      cashProportion[2]  1
 MI BND1      cashProportion[3]
 UP BND1      cashProportion[3]  1
 BV BND1      x[1,1]  
 BV BND1      x[1,2]  
 BV BND1      x[1,3]  
 BV BND1      x[1,4]  
 BV BND1      x[1,5]  
 BV BND1      x[1,6]  
 BV BND1      x[1,7]  
 BV BND1      x[1,8]  
 BV BND1      x[1,9]  
 BV BND1      x[1,10] 
 BV BND1      x[1,11] 
 BV BND1      x[1,12] 
 BV BND1      x[1,13] 
 BV BND1      x[1,14] 
 BV BND1      x[1,15] 
 BV BND1      x[1,16] 
 BV BND1      x[1,17] 
 BV BND1      x[1,18] 
 BV BND1      x[2,1]  
 BV BND1      x[2,2]  
 BV BND1      x[2,3]  
 BV BND1      x[2,4]  
 BV BND1      x[2,5]  
 BV BND1      x[2,6]  
 BV BND1      x[2,7]  
 BV BND1      x[2,8]  
 BV BND1      x[2,9]  
 BV BND1      x[2,10] 
 BV BND1      x[2,11] 
 BV BND1      x[2,12] 
 BV BND1      x[2,13] 
 BV BND1      x[2,14] 
 BV BND1      x[2,15] 
 BV BND1      x[2,16] 
 BV BND1      x[2,17] 
 BV BND1      x[2,18] 
 BV BND1      x[3,1]  
 BV BND1      x[3,2]  
 BV BND1      x[3,3]  
 BV BND1      x[3,4]  
 BV BND1      x[3,5]  
 BV BND1      x[3,6]  
 BV BND1      x[3,7]  
 BV BND1      x[3,8]  
 BV BND1      x[3,9]  
 BV BND1      x[3,10] 
 BV BND1      x[3,11] 
 BV BND1      x[3,12] 
 BV BND1      x[3,13] 
 BV BND1      x[3,14] 
 BV BND1      x[3,15] 
 BV BND1      x[3,16] 
 BV BND1      x[3,17] 
 BV BND1      x[3,18] 
ENDATA
